
;this file is automatically generated: Tue Feb 23 13:38:04 CST 2021

;declarations generated

(declare-fun oclExcludes ( Int Int) Bool)
(declare-fun type_5982bed2_faac_4a61_babd_93f9187531c5_Class9 ( Int) Bool)
(declare-fun Cardinality ( Int) Int)
(declare-fun type_5982bed2_faac_4a61_babd_93f9187531c5_Class0 ( Int) Bool)
(declare-fun type_5982bed2_faac_4a61_babd_93f9187531c5_Class2 ( Int) Bool)
(declare-fun type_5982bed2_faac_4a61_babd_93f9187531c5_Class1 ( Int) Bool)
(declare-fun type_5982bed2_faac_4a61_babd_93f9187531c5_Class4 ( Int) Bool)
(declare-fun type_5982bed2_faac_4a61_babd_93f9187531c5_Class3 ( Int) Bool)
(declare-fun type_5982bed2_faac_4a61_babd_93f9187531c5_Class6 ( Int) Bool)
(declare-fun type_5982bed2_faac_4a61_babd_93f9187531c5_Class5 ( Int) Bool)
(declare-fun type_5982bed2_faac_4a61_babd_93f9187531c5_Class8 ( Int) Bool)
(declare-fun type_5982bed2_faac_4a61_babd_93f9187531c5_Class7 ( Int) Bool)
(declare-fun oclSelect ( Int Bool) Int)
(declare-fun type_5982bed2_faac_4a61_babd_93f9187531c5_Class13 ( Int) Bool)
(declare-fun type_5982bed2_faac_4a61_babd_93f9187531c5_Class12 ( Int) Bool)
(declare-fun type_5982bed2_faac_4a61_babd_93f9187531c5_Class11 ( Int) Bool)
(declare-fun type_5982bed2_faac_4a61_babd_93f9187531c5_Class10 ( Int) Bool)
(declare-fun type_5982bed2_faac_4a61_babd_93f9187531c5_Class17 ( Int) Bool)
(declare-fun type_5982bed2_faac_4a61_babd_93f9187531c5_Class16 ( Int) Bool)
(declare-fun type_5982bed2_faac_4a61_babd_93f9187531c5_Class15 ( Int) Bool)
(declare-fun type_5982bed2_faac_4a61_babd_93f9187531c5_Class14 ( Int) Bool)
(declare-fun type_5982bed2_faac_4a61_babd_93f9187531c5_Class19 ( Int) Bool)
(declare-fun type_5982bed2_faac_4a61_babd_93f9187531c5_Class18 ( Int) Bool)
(declare-fun type_5982bed2_faac_4a61_babd_93f9187531c5_Class24 ( Int) Bool)
(declare-fun type_5982bed2_faac_4a61_babd_93f9187531c5_Class23 ( Int) Bool)
(declare-fun type_5982bed2_faac_4a61_babd_93f9187531c5_Class22 ( Int) Bool)
(declare-fun type_5982bed2_faac_4a61_babd_93f9187531c5_Class21 ( Int) Bool)
(declare-fun type_5982bed2_faac_4a61_babd_93f9187531c5_Class28 ( Int) Bool)
(declare-fun type_5982bed2_faac_4a61_babd_93f9187531c5_Class27 ( Int) Bool)
(declare-fun type_5982bed2_faac_4a61_babd_93f9187531c5_Class26 ( Int) Bool)
(declare-fun type_5982bed2_faac_4a61_babd_93f9187531c5_Class25 ( Int) Bool)
(declare-fun type_5982bed2_faac_4a61_babd_93f9187531c5_Class20 ( Int) Bool)
(declare-fun type_5982bed2_faac_4a61_babd_93f9187531c5_Class29 ( Int) Bool)
(declare-fun type_5982bed2_faac_4a61_babd_93f9187531c5_Class35 ( Int) Bool)
(declare-fun type_5982bed2_faac_4a61_babd_93f9187531c5_Class34 ( Int) Bool)
(declare-fun type_5982bed2_faac_4a61_babd_93f9187531c5_Class33 ( Int) Bool)
(declare-fun type_5982bed2_faac_4a61_babd_93f9187531c5_Class32 ( Int) Bool)
(declare-fun type_5982bed2_faac_4a61_babd_93f9187531c5_Class39 ( Int) Bool)
(declare-fun type_5982bed2_faac_4a61_babd_93f9187531c5_Class38 ( Int) Bool)
(declare-fun type_5982bed2_faac_4a61_babd_93f9187531c5_Class37 ( Int) Bool)
(declare-fun type_5982bed2_faac_4a61_babd_93f9187531c5_Class36 ( Int) Bool)
(declare-fun type_5982bed2_faac_4a61_babd_93f9187531c5_Class31 ( Int) Bool)
(declare-fun type_5982bed2_faac_4a61_babd_93f9187531c5_Class30 ( Int) Bool)
(declare-fun type_5982bed2_faac_4a61_babd_93f9187531c5_Class45 ( Int) Bool)
(declare-fun type_5982bed2_faac_4a61_babd_93f9187531c5_Class44 ( Int) Bool)
(declare-fun type_5982bed2_faac_4a61_babd_93f9187531c5_Class43 ( Int) Bool)
(declare-fun type_5982bed2_faac_4a61_babd_93f9187531c5_Class42 ( Int) Bool)
(declare-fun type_5982bed2_faac_4a61_babd_93f9187531c5_Class41 ( Int) Bool)
(declare-fun type_5982bed2_faac_4a61_babd_93f9187531c5_Class40 ( Int) Bool)
(declare-fun Enum0 ( Int) Int)
(declare-fun Enum1 ( Int) Int)
(declare-fun Enum2 ( Int) Int)
(declare-fun container_ ( Int) Int)
(declare-fun class40_Class40IntAttr2 ( Int) Int)
(declare-fun obj_0e956ea8_fb49_427b_b6f3_f60a3a7da674 ( Int) Int)
(declare-fun oclIncludes ( Int Int) Bool)
(declare-fun ObjAt ( Int Int) Int)

;formula(s) generated
(assert (forall ((p Int)) (=> ( type_5982bed2_faac_4a61_babd_93f9187531c5_Class40 p )  (and (>= ( Enum0 ( obj_0e956ea8_fb49_427b_b6f3_f60a3a7da674 p )  )  0) (<= ( Enum0 ( obj_0e956ea8_fb49_427b_b6f3_f60a3a7da674 p )  )  3)))))
(assert (! (and (forall ((v Int)) (=> (and (and (and ( type_5982bed2_faac_4a61_babd_93f9187531c5_Class40 v )  ( type_5982bed2_faac_4a61_babd_93f9187531c5_Class21 v ) ) ( type_5982bed2_faac_4a61_babd_93f9187531c5_Class2 v ) ) ( type_5982bed2_faac_4a61_babd_93f9187531c5_Class20 v ) ) (= ( Enum0 ( obj_0e956ea8_fb49_427b_b6f3_f60a3a7da674 v )  )  1))) (forall ((v Int)) (=> (and (and (and ( type_5982bed2_faac_4a61_babd_93f9187531c5_Class40 v )  ( type_5982bed2_faac_4a61_babd_93f9187531c5_Class21 v ) ) ( type_5982bed2_faac_4a61_babd_93f9187531c5_Class2 v ) ) ( type_5982bed2_faac_4a61_babd_93f9187531c5_Class20 v ) ) (< ( class40_Class40IntAttr2 ( obj_0e956ea8_fb49_427b_b6f3_f60a3a7da674 v )  )  12)))):named l0))
(assert (! (exists ((o Int)) (and (and (and ( type_5982bed2_faac_4a61_babd_93f9187531c5_Class0 ( obj_0e956ea8_fb49_427b_b6f3_f60a3a7da674 o )  )  ( type_5982bed2_faac_4a61_babd_93f9187531c5_Class22 ( obj_0e956ea8_fb49_427b_b6f3_f60a3a7da674 o )  ) ) ( type_5982bed2_faac_4a61_babd_93f9187531c5_Class35 ( obj_0e956ea8_fb49_427b_b6f3_f60a3a7da674 o )  ) ) ( type_5982bed2_faac_4a61_babd_93f9187531c5_Class2 ( obj_0e956ea8_fb49_427b_b6f3_f60a3a7da674 o )  ) )):named c0))
(assert (! (exists ((o Int)) ( type_5982bed2_faac_4a61_babd_93f9187531c5_Class1 ( obj_0e956ea8_fb49_427b_b6f3_f60a3a7da674 o )  ) ):named c1))
(assert (! (exists ((o Int)) (and (and (and (and ( type_5982bed2_faac_4a61_babd_93f9187531c5_Class10 ( obj_0e956ea8_fb49_427b_b6f3_f60a3a7da674 o )  )  ( type_5982bed2_faac_4a61_babd_93f9187531c5_Class16 ( obj_0e956ea8_fb49_427b_b6f3_f60a3a7da674 o )  ) ) ( type_5982bed2_faac_4a61_babd_93f9187531c5_Class15 ( obj_0e956ea8_fb49_427b_b6f3_f60a3a7da674 o )  ) ) ( type_5982bed2_faac_4a61_babd_93f9187531c5_Class41 ( obj_0e956ea8_fb49_427b_b6f3_f60a3a7da674 o )  ) ) ( type_5982bed2_faac_4a61_babd_93f9187531c5_Class2 ( obj_0e956ea8_fb49_427b_b6f3_f60a3a7da674 o )  ) )):named c2))
(assert (! (exists ((o Int)) ( type_5982bed2_faac_4a61_babd_93f9187531c5_Class11 ( obj_0e956ea8_fb49_427b_b6f3_f60a3a7da674 o )  ) ):named c3))
(assert (! (exists ((o Int)) (and (and (and (and ( type_5982bed2_faac_4a61_babd_93f9187531c5_Class12 ( obj_0e956ea8_fb49_427b_b6f3_f60a3a7da674 o )  )  ( type_5982bed2_faac_4a61_babd_93f9187531c5_Class22 ( obj_0e956ea8_fb49_427b_b6f3_f60a3a7da674 o )  ) ) ( type_5982bed2_faac_4a61_babd_93f9187531c5_Class35 ( obj_0e956ea8_fb49_427b_b6f3_f60a3a7da674 o )  ) ) ( type_5982bed2_faac_4a61_babd_93f9187531c5_Class0 ( obj_0e956ea8_fb49_427b_b6f3_f60a3a7da674 o )  ) ) ( type_5982bed2_faac_4a61_babd_93f9187531c5_Class2 ( obj_0e956ea8_fb49_427b_b6f3_f60a3a7da674 o )  ) )):named c4))
(assert (! (exists ((o Int)) (and (and (and ( type_5982bed2_faac_4a61_babd_93f9187531c5_Class13 ( obj_0e956ea8_fb49_427b_b6f3_f60a3a7da674 o )  )  ( type_5982bed2_faac_4a61_babd_93f9187531c5_Class16 ( obj_0e956ea8_fb49_427b_b6f3_f60a3a7da674 o )  ) ) ( type_5982bed2_faac_4a61_babd_93f9187531c5_Class15 ( obj_0e956ea8_fb49_427b_b6f3_f60a3a7da674 o )  ) ) ( type_5982bed2_faac_4a61_babd_93f9187531c5_Class2 ( obj_0e956ea8_fb49_427b_b6f3_f60a3a7da674 o )  ) )):named c5))
(assert (! (exists ((o Int)) (and (and (and (and (and (and (and ( type_5982bed2_faac_4a61_babd_93f9187531c5_Class14 ( obj_0e956ea8_fb49_427b_b6f3_f60a3a7da674 o )  )  ( type_5982bed2_faac_4a61_babd_93f9187531c5_Class33 ( obj_0e956ea8_fb49_427b_b6f3_f60a3a7da674 o )  ) ) ( type_5982bed2_faac_4a61_babd_93f9187531c5_Class13 ( obj_0e956ea8_fb49_427b_b6f3_f60a3a7da674 o )  ) ) ( type_5982bed2_faac_4a61_babd_93f9187531c5_Class16 ( obj_0e956ea8_fb49_427b_b6f3_f60a3a7da674 o )  ) ) ( type_5982bed2_faac_4a61_babd_93f9187531c5_Class15 ( obj_0e956ea8_fb49_427b_b6f3_f60a3a7da674 o )  ) ) ( type_5982bed2_faac_4a61_babd_93f9187531c5_Class4 ( obj_0e956ea8_fb49_427b_b6f3_f60a3a7da674 o )  ) ) ( type_5982bed2_faac_4a61_babd_93f9187531c5_Class41 ( obj_0e956ea8_fb49_427b_b6f3_f60a3a7da674 o )  ) ) ( type_5982bed2_faac_4a61_babd_93f9187531c5_Class2 ( obj_0e956ea8_fb49_427b_b6f3_f60a3a7da674 o )  ) )):named c6))
(assert (! (exists ((o Int)) (and ( type_5982bed2_faac_4a61_babd_93f9187531c5_Class15 ( obj_0e956ea8_fb49_427b_b6f3_f60a3a7da674 o )  )  ( type_5982bed2_faac_4a61_babd_93f9187531c5_Class2 ( obj_0e956ea8_fb49_427b_b6f3_f60a3a7da674 o )  ) )):named c7))
(assert (! (exists ((o Int)) (and (and ( type_5982bed2_faac_4a61_babd_93f9187531c5_Class16 ( obj_0e956ea8_fb49_427b_b6f3_f60a3a7da674 o )  )  ( type_5982bed2_faac_4a61_babd_93f9187531c5_Class15 ( obj_0e956ea8_fb49_427b_b6f3_f60a3a7da674 o )  ) ) ( type_5982bed2_faac_4a61_babd_93f9187531c5_Class2 ( obj_0e956ea8_fb49_427b_b6f3_f60a3a7da674 o )  ) )):named c8))
(assert (! (exists ((o Int)) (and (and (and (and ( type_5982bed2_faac_4a61_babd_93f9187531c5_Class17 ( obj_0e956ea8_fb49_427b_b6f3_f60a3a7da674 o )  )  ( type_5982bed2_faac_4a61_babd_93f9187531c5_Class24 ( obj_0e956ea8_fb49_427b_b6f3_f60a3a7da674 o )  ) ) ( type_5982bed2_faac_4a61_babd_93f9187531c5_Class26 ( obj_0e956ea8_fb49_427b_b6f3_f60a3a7da674 o )  ) ) ( type_5982bed2_faac_4a61_babd_93f9187531c5_Class32 ( obj_0e956ea8_fb49_427b_b6f3_f60a3a7da674 o )  ) ) ( type_5982bed2_faac_4a61_babd_93f9187531c5_Class2 ( obj_0e956ea8_fb49_427b_b6f3_f60a3a7da674 o )  ) )):named c9))
(assert (! (exists ((o Int)) ( type_5982bed2_faac_4a61_babd_93f9187531c5_Class18 ( obj_0e956ea8_fb49_427b_b6f3_f60a3a7da674 o )  ) ):named c10))
(assert (! (exists ((o Int)) ( type_5982bed2_faac_4a61_babd_93f9187531c5_Class19 ( obj_0e956ea8_fb49_427b_b6f3_f60a3a7da674 o )  ) ):named c11))
(assert (! (exists ((o Int)) ( type_5982bed2_faac_4a61_babd_93f9187531c5_Class2 ( obj_0e956ea8_fb49_427b_b6f3_f60a3a7da674 o )  ) ):named c12))
(assert (! (exists ((o Int)) (and (and ( type_5982bed2_faac_4a61_babd_93f9187531c5_Class20 ( obj_0e956ea8_fb49_427b_b6f3_f60a3a7da674 o )  )  ( type_5982bed2_faac_4a61_babd_93f9187531c5_Class21 ( obj_0e956ea8_fb49_427b_b6f3_f60a3a7da674 o )  ) ) ( type_5982bed2_faac_4a61_babd_93f9187531c5_Class2 ( obj_0e956ea8_fb49_427b_b6f3_f60a3a7da674 o )  ) )):named c13))
(assert (! (exists ((o Int)) (and ( type_5982bed2_faac_4a61_babd_93f9187531c5_Class21 ( obj_0e956ea8_fb49_427b_b6f3_f60a3a7da674 o )  )  ( type_5982bed2_faac_4a61_babd_93f9187531c5_Class2 ( obj_0e956ea8_fb49_427b_b6f3_f60a3a7da674 o )  ) )):named c14))
(assert (! (exists ((o Int)) (and (and ( type_5982bed2_faac_4a61_babd_93f9187531c5_Class22 ( obj_0e956ea8_fb49_427b_b6f3_f60a3a7da674 o )  )  ( type_5982bed2_faac_4a61_babd_93f9187531c5_Class35 ( obj_0e956ea8_fb49_427b_b6f3_f60a3a7da674 o )  ) ) ( type_5982bed2_faac_4a61_babd_93f9187531c5_Class2 ( obj_0e956ea8_fb49_427b_b6f3_f60a3a7da674 o )  ) )):named c15))
(assert (! (exists ((o Int)) (and (and (and (and (and (and ( type_5982bed2_faac_4a61_babd_93f9187531c5_Class23 ( obj_0e956ea8_fb49_427b_b6f3_f60a3a7da674 o )  )  ( type_5982bed2_faac_4a61_babd_93f9187531c5_Class12 ( obj_0e956ea8_fb49_427b_b6f3_f60a3a7da674 o )  ) ) ( type_5982bed2_faac_4a61_babd_93f9187531c5_Class22 ( obj_0e956ea8_fb49_427b_b6f3_f60a3a7da674 o )  ) ) ( type_5982bed2_faac_4a61_babd_93f9187531c5_Class25 ( obj_0e956ea8_fb49_427b_b6f3_f60a3a7da674 o )  ) ) ( type_5982bed2_faac_4a61_babd_93f9187531c5_Class35 ( obj_0e956ea8_fb49_427b_b6f3_f60a3a7da674 o )  ) ) ( type_5982bed2_faac_4a61_babd_93f9187531c5_Class0 ( obj_0e956ea8_fb49_427b_b6f3_f60a3a7da674 o )  ) ) ( type_5982bed2_faac_4a61_babd_93f9187531c5_Class2 ( obj_0e956ea8_fb49_427b_b6f3_f60a3a7da674 o )  ) )):named c16))
(assert (! (exists ((o Int)) (and (and (and ( type_5982bed2_faac_4a61_babd_93f9187531c5_Class24 ( obj_0e956ea8_fb49_427b_b6f3_f60a3a7da674 o )  )  ( type_5982bed2_faac_4a61_babd_93f9187531c5_Class26 ( obj_0e956ea8_fb49_427b_b6f3_f60a3a7da674 o )  ) ) ( type_5982bed2_faac_4a61_babd_93f9187531c5_Class32 ( obj_0e956ea8_fb49_427b_b6f3_f60a3a7da674 o )  ) ) ( type_5982bed2_faac_4a61_babd_93f9187531c5_Class2 ( obj_0e956ea8_fb49_427b_b6f3_f60a3a7da674 o )  ) )):named c17))
(assert (! (exists ((o Int)) (and (and (and (and (and ( type_5982bed2_faac_4a61_babd_93f9187531c5_Class25 ( obj_0e956ea8_fb49_427b_b6f3_f60a3a7da674 o )  )  ( type_5982bed2_faac_4a61_babd_93f9187531c5_Class12 ( obj_0e956ea8_fb49_427b_b6f3_f60a3a7da674 o )  ) ) ( type_5982bed2_faac_4a61_babd_93f9187531c5_Class22 ( obj_0e956ea8_fb49_427b_b6f3_f60a3a7da674 o )  ) ) ( type_5982bed2_faac_4a61_babd_93f9187531c5_Class35 ( obj_0e956ea8_fb49_427b_b6f3_f60a3a7da674 o )  ) ) ( type_5982bed2_faac_4a61_babd_93f9187531c5_Class0 ( obj_0e956ea8_fb49_427b_b6f3_f60a3a7da674 o )  ) ) ( type_5982bed2_faac_4a61_babd_93f9187531c5_Class2 ( obj_0e956ea8_fb49_427b_b6f3_f60a3a7da674 o )  ) )):named c18))
(assert (! (exists ((o Int)) (and (and ( type_5982bed2_faac_4a61_babd_93f9187531c5_Class26 ( obj_0e956ea8_fb49_427b_b6f3_f60a3a7da674 o )  )  ( type_5982bed2_faac_4a61_babd_93f9187531c5_Class32 ( obj_0e956ea8_fb49_427b_b6f3_f60a3a7da674 o )  ) ) ( type_5982bed2_faac_4a61_babd_93f9187531c5_Class2 ( obj_0e956ea8_fb49_427b_b6f3_f60a3a7da674 o )  ) )):named c19))
(assert (! (exists ((o Int)) (and ( type_5982bed2_faac_4a61_babd_93f9187531c5_Class27 ( obj_0e956ea8_fb49_427b_b6f3_f60a3a7da674 o )  )  ( type_5982bed2_faac_4a61_babd_93f9187531c5_Class2 ( obj_0e956ea8_fb49_427b_b6f3_f60a3a7da674 o )  ) )):named c20))
(assert (! (exists ((o Int)) ( type_5982bed2_faac_4a61_babd_93f9187531c5_Class28 ( obj_0e956ea8_fb49_427b_b6f3_f60a3a7da674 o )  ) ):named c21))
(assert (! (exists ((o Int)) ( type_5982bed2_faac_4a61_babd_93f9187531c5_Class29 ( obj_0e956ea8_fb49_427b_b6f3_f60a3a7da674 o )  ) ):named c22))
(assert (! (exists ((o Int)) ( type_5982bed2_faac_4a61_babd_93f9187531c5_Class3 ( obj_0e956ea8_fb49_427b_b6f3_f60a3a7da674 o )  ) ):named c23))
(assert (! (exists ((o Int)) (and ( type_5982bed2_faac_4a61_babd_93f9187531c5_Class30 ( obj_0e956ea8_fb49_427b_b6f3_f60a3a7da674 o )  )  ( type_5982bed2_faac_4a61_babd_93f9187531c5_Class2 ( obj_0e956ea8_fb49_427b_b6f3_f60a3a7da674 o )  ) )):named c24))
(assert (! (exists ((o Int)) (and (and (and (and ( type_5982bed2_faac_4a61_babd_93f9187531c5_Class31 ( obj_0e956ea8_fb49_427b_b6f3_f60a3a7da674 o )  )  ( type_5982bed2_faac_4a61_babd_93f9187531c5_Class16 ( obj_0e956ea8_fb49_427b_b6f3_f60a3a7da674 o )  ) ) ( type_5982bed2_faac_4a61_babd_93f9187531c5_Class15 ( obj_0e956ea8_fb49_427b_b6f3_f60a3a7da674 o )  ) ) ( type_5982bed2_faac_4a61_babd_93f9187531c5_Class41 ( obj_0e956ea8_fb49_427b_b6f3_f60a3a7da674 o )  ) ) ( type_5982bed2_faac_4a61_babd_93f9187531c5_Class2 ( obj_0e956ea8_fb49_427b_b6f3_f60a3a7da674 o )  ) )):named c25))
(assert (! (exists ((o Int)) (and ( type_5982bed2_faac_4a61_babd_93f9187531c5_Class32 ( obj_0e956ea8_fb49_427b_b6f3_f60a3a7da674 o )  )  ( type_5982bed2_faac_4a61_babd_93f9187531c5_Class2 ( obj_0e956ea8_fb49_427b_b6f3_f60a3a7da674 o )  ) )):named c26))
(assert (! (exists ((o Int)) (and (and (and (and (and ( type_5982bed2_faac_4a61_babd_93f9187531c5_Class33 ( obj_0e956ea8_fb49_427b_b6f3_f60a3a7da674 o )  )  ( type_5982bed2_faac_4a61_babd_93f9187531c5_Class13 ( obj_0e956ea8_fb49_427b_b6f3_f60a3a7da674 o )  ) ) ( type_5982bed2_faac_4a61_babd_93f9187531c5_Class16 ( obj_0e956ea8_fb49_427b_b6f3_f60a3a7da674 o )  ) ) ( type_5982bed2_faac_4a61_babd_93f9187531c5_Class15 ( obj_0e956ea8_fb49_427b_b6f3_f60a3a7da674 o )  ) ) ( type_5982bed2_faac_4a61_babd_93f9187531c5_Class41 ( obj_0e956ea8_fb49_427b_b6f3_f60a3a7da674 o )  ) ) ( type_5982bed2_faac_4a61_babd_93f9187531c5_Class2 ( obj_0e956ea8_fb49_427b_b6f3_f60a3a7da674 o )  ) )):named c27))
(assert (! (exists ((o Int)) ( type_5982bed2_faac_4a61_babd_93f9187531c5_Class34 ( obj_0e956ea8_fb49_427b_b6f3_f60a3a7da674 o )  ) ):named c28))
(assert (! (exists ((o Int)) (and ( type_5982bed2_faac_4a61_babd_93f9187531c5_Class35 ( obj_0e956ea8_fb49_427b_b6f3_f60a3a7da674 o )  )  ( type_5982bed2_faac_4a61_babd_93f9187531c5_Class2 ( obj_0e956ea8_fb49_427b_b6f3_f60a3a7da674 o )  ) )):named c29))
(assert (! (exists ((o Int)) ( type_5982bed2_faac_4a61_babd_93f9187531c5_Class36 ( obj_0e956ea8_fb49_427b_b6f3_f60a3a7da674 o )  ) ):named c30))
(assert (! (exists ((o Int)) ( type_5982bed2_faac_4a61_babd_93f9187531c5_Class37 ( obj_0e956ea8_fb49_427b_b6f3_f60a3a7da674 o )  ) ):named c31))
(assert (! (exists ((o Int)) (and ( type_5982bed2_faac_4a61_babd_93f9187531c5_Class38 ( obj_0e956ea8_fb49_427b_b6f3_f60a3a7da674 o )  )  ( type_5982bed2_faac_4a61_babd_93f9187531c5_Class2 ( obj_0e956ea8_fb49_427b_b6f3_f60a3a7da674 o )  ) )):named c32))
(assert (! (exists ((o Int)) ( type_5982bed2_faac_4a61_babd_93f9187531c5_Class39 ( obj_0e956ea8_fb49_427b_b6f3_f60a3a7da674 o )  ) ):named c33))
(assert (! (exists ((o Int)) (and (and (and (and (and (and ( type_5982bed2_faac_4a61_babd_93f9187531c5_Class4 ( obj_0e956ea8_fb49_427b_b6f3_f60a3a7da674 o )  )  ( type_5982bed2_faac_4a61_babd_93f9187531c5_Class33 ( obj_0e956ea8_fb49_427b_b6f3_f60a3a7da674 o )  ) ) ( type_5982bed2_faac_4a61_babd_93f9187531c5_Class13 ( obj_0e956ea8_fb49_427b_b6f3_f60a3a7da674 o )  ) ) ( type_5982bed2_faac_4a61_babd_93f9187531c5_Class16 ( obj_0e956ea8_fb49_427b_b6f3_f60a3a7da674 o )  ) ) ( type_5982bed2_faac_4a61_babd_93f9187531c5_Class15 ( obj_0e956ea8_fb49_427b_b6f3_f60a3a7da674 o )  ) ) ( type_5982bed2_faac_4a61_babd_93f9187531c5_Class41 ( obj_0e956ea8_fb49_427b_b6f3_f60a3a7da674 o )  ) ) ( type_5982bed2_faac_4a61_babd_93f9187531c5_Class2 ( obj_0e956ea8_fb49_427b_b6f3_f60a3a7da674 o )  ) )):named c34))
(assert (! (exists ((o Int)) (and (and (and ( type_5982bed2_faac_4a61_babd_93f9187531c5_Class40 ( obj_0e956ea8_fb49_427b_b6f3_f60a3a7da674 o )  )  ( type_5982bed2_faac_4a61_babd_93f9187531c5_Class21 ( obj_0e956ea8_fb49_427b_b6f3_f60a3a7da674 o )  ) ) ( type_5982bed2_faac_4a61_babd_93f9187531c5_Class2 ( obj_0e956ea8_fb49_427b_b6f3_f60a3a7da674 o )  ) ) ( type_5982bed2_faac_4a61_babd_93f9187531c5_Class20 ( obj_0e956ea8_fb49_427b_b6f3_f60a3a7da674 o )  ) )):named c35))
(assert (! (exists ((o Int)) (and (and (and ( type_5982bed2_faac_4a61_babd_93f9187531c5_Class41 ( obj_0e956ea8_fb49_427b_b6f3_f60a3a7da674 o )  )  ( type_5982bed2_faac_4a61_babd_93f9187531c5_Class16 ( obj_0e956ea8_fb49_427b_b6f3_f60a3a7da674 o )  ) ) ( type_5982bed2_faac_4a61_babd_93f9187531c5_Class15 ( obj_0e956ea8_fb49_427b_b6f3_f60a3a7da674 o )  ) ) ( type_5982bed2_faac_4a61_babd_93f9187531c5_Class2 ( obj_0e956ea8_fb49_427b_b6f3_f60a3a7da674 o )  ) )):named c36))
(assert (! (exists ((o Int)) (and (and (and ( type_5982bed2_faac_4a61_babd_93f9187531c5_Class42 ( obj_0e956ea8_fb49_427b_b6f3_f60a3a7da674 o )  )  ( type_5982bed2_faac_4a61_babd_93f9187531c5_Class22 ( obj_0e956ea8_fb49_427b_b6f3_f60a3a7da674 o )  ) ) ( type_5982bed2_faac_4a61_babd_93f9187531c5_Class35 ( obj_0e956ea8_fb49_427b_b6f3_f60a3a7da674 o )  ) ) ( type_5982bed2_faac_4a61_babd_93f9187531c5_Class2 ( obj_0e956ea8_fb49_427b_b6f3_f60a3a7da674 o )  ) )):named c37))
(assert (! (exists ((o Int)) ( type_5982bed2_faac_4a61_babd_93f9187531c5_Class43 ( obj_0e956ea8_fb49_427b_b6f3_f60a3a7da674 o )  ) ):named c38))
(assert (! (exists ((o Int)) (and (and (and (and (and (and ( type_5982bed2_faac_4a61_babd_93f9187531c5_Class44 ( obj_0e956ea8_fb49_427b_b6f3_f60a3a7da674 o )  )  ( type_5982bed2_faac_4a61_babd_93f9187531c5_Class33 ( obj_0e956ea8_fb49_427b_b6f3_f60a3a7da674 o )  ) ) ( type_5982bed2_faac_4a61_babd_93f9187531c5_Class13 ( obj_0e956ea8_fb49_427b_b6f3_f60a3a7da674 o )  ) ) ( type_5982bed2_faac_4a61_babd_93f9187531c5_Class16 ( obj_0e956ea8_fb49_427b_b6f3_f60a3a7da674 o )  ) ) ( type_5982bed2_faac_4a61_babd_93f9187531c5_Class15 ( obj_0e956ea8_fb49_427b_b6f3_f60a3a7da674 o )  ) ) ( type_5982bed2_faac_4a61_babd_93f9187531c5_Class41 ( obj_0e956ea8_fb49_427b_b6f3_f60a3a7da674 o )  ) ) ( type_5982bed2_faac_4a61_babd_93f9187531c5_Class2 ( obj_0e956ea8_fb49_427b_b6f3_f60a3a7da674 o )  ) )):named c39))
(assert (! (exists ((o Int)) ( type_5982bed2_faac_4a61_babd_93f9187531c5_Class45 ( obj_0e956ea8_fb49_427b_b6f3_f60a3a7da674 o )  ) ):named c40))
(assert (! (exists ((o Int)) ( type_5982bed2_faac_4a61_babd_93f9187531c5_Class5 ( obj_0e956ea8_fb49_427b_b6f3_f60a3a7da674 o )  ) ):named c41))
(assert (! (exists ((o Int)) (and (and (and (and ( type_5982bed2_faac_4a61_babd_93f9187531c5_Class6 ( obj_0e956ea8_fb49_427b_b6f3_f60a3a7da674 o )  )  ( type_5982bed2_faac_4a61_babd_93f9187531c5_Class22 ( obj_0e956ea8_fb49_427b_b6f3_f60a3a7da674 o )  ) ) ( type_5982bed2_faac_4a61_babd_93f9187531c5_Class35 ( obj_0e956ea8_fb49_427b_b6f3_f60a3a7da674 o )  ) ) ( type_5982bed2_faac_4a61_babd_93f9187531c5_Class2 ( obj_0e956ea8_fb49_427b_b6f3_f60a3a7da674 o )  ) ) ( type_5982bed2_faac_4a61_babd_93f9187531c5_Class42 ( obj_0e956ea8_fb49_427b_b6f3_f60a3a7da674 o )  ) )):named c42))
(assert (! (exists ((o Int)) ( type_5982bed2_faac_4a61_babd_93f9187531c5_Class7 ( obj_0e956ea8_fb49_427b_b6f3_f60a3a7da674 o )  ) ):named c43))
(assert (! (exists ((o Int)) (and (and (and (and (and ( type_5982bed2_faac_4a61_babd_93f9187531c5_Class8 ( obj_0e956ea8_fb49_427b_b6f3_f60a3a7da674 o )  )  ( type_5982bed2_faac_4a61_babd_93f9187531c5_Class16 ( obj_0e956ea8_fb49_427b_b6f3_f60a3a7da674 o )  ) ) ( type_5982bed2_faac_4a61_babd_93f9187531c5_Class15 ( obj_0e956ea8_fb49_427b_b6f3_f60a3a7da674 o )  ) ) ( type_5982bed2_faac_4a61_babd_93f9187531c5_Class41 ( obj_0e956ea8_fb49_427b_b6f3_f60a3a7da674 o )  ) ) ( type_5982bed2_faac_4a61_babd_93f9187531c5_Class10 ( obj_0e956ea8_fb49_427b_b6f3_f60a3a7da674 o )  ) ) ( type_5982bed2_faac_4a61_babd_93f9187531c5_Class2 ( obj_0e956ea8_fb49_427b_b6f3_f60a3a7da674 o )  ) )):named c44))
(assert (! (exists ((o Int)) (and (and (and (and (and (and (and ( type_5982bed2_faac_4a61_babd_93f9187531c5_Class9 ( obj_0e956ea8_fb49_427b_b6f3_f60a3a7da674 o )  )  ( type_5982bed2_faac_4a61_babd_93f9187531c5_Class22 ( obj_0e956ea8_fb49_427b_b6f3_f60a3a7da674 o )  ) ) ( type_5982bed2_faac_4a61_babd_93f9187531c5_Class35 ( obj_0e956ea8_fb49_427b_b6f3_f60a3a7da674 o )  ) ) ( type_5982bed2_faac_4a61_babd_93f9187531c5_Class16 ( obj_0e956ea8_fb49_427b_b6f3_f60a3a7da674 o )  ) ) ( type_5982bed2_faac_4a61_babd_93f9187531c5_Class15 ( obj_0e956ea8_fb49_427b_b6f3_f60a3a7da674 o )  ) ) ( type_5982bed2_faac_4a61_babd_93f9187531c5_Class0 ( obj_0e956ea8_fb49_427b_b6f3_f60a3a7da674 o )  ) ) ( type_5982bed2_faac_4a61_babd_93f9187531c5_Class41 ( obj_0e956ea8_fb49_427b_b6f3_f60a3a7da674 o )  ) ) ( type_5982bed2_faac_4a61_babd_93f9187531c5_Class2 ( obj_0e956ea8_fb49_427b_b6f3_f60a3a7da674 o )  ) )):named c45))

 ;end of formula 